c turning on binary mode checking
c parsing input formula with 202048 variables and 780980 clauses
c finished parsing, read 31617494 bytes from proof file
c detected empty clause; start verification via backward checking
c 63859 of 780980 clauses in core                            
c 125901 of 652986 lemmas in core using 2080127 resolution steps
c 0 RAT lemmas in core; 22087 redundant literals in core lemmas
s VERIFIED
c verification time: 7.960 seconds
